141
10000
2213
945
815
186
263
1340
277
2357
476
2
1428
819
1377
422
1107
609
2115
2441
1446
1279
206
75
2369
1637
1612
831
1778
372
1948
2419
880
818
561
1094
171
1290
76
810
1302
2204
460
2406
792
2286
141
419
1029
807
1309
946
1466
40
327
1516
163
553
885
1849
1856
1529
599
501
308
2053
1901
538
1051
1348
898
221
2265
258
55
352
520
1611
325
571
1936
2372
124
1939
325
585
1947
480
1104
1698
547
264
580
859
712
2225
195
1576
1072
2455
1719
1884
289
209
352
1639
1985
2231
1315
1449
924
952
732
2
273
537
765
1208
2452
1611
930
2131
570
1372
735
990
1633
525
733
225
300
2235
1435
879
18
1838
2172
224
198
785
172
1736
2117
